p cnf 200 1110
-101 -6 0
-101 58 0
-101 34 0
-101 82 0
-101 69 0
-101 87 0
-101 36 0
-101 50 0
-101 -52 0
-101 -86 0
101 6 -58 -34 -82 -69 -87 -36 -50 52 86 0
-102 -21 0
-102 -10 0
-102 -7 0
-102 -48 0
-102 50 0
-102 34 0
-102 40 0
-102 -99 0
-102 26 0
-102 67 0
102 21 10 7 48 -50 -34 -40 99 -26 -67 0
-103 95 0
-103 -4 0
-103 -11 0
-103 50 0
-103 -56 0
-103 82 0
-103 43 0
-103 92 0
-103 53 0
-103 -74 0
103 -95 4 11 -50 56 -82 -43 -92 -53 74 0
-104 28 0
-104 25 0
-104 90 0
-104 -30 0
-104 -98 0
-104 -22 0
-104 -6 0
-104 76 0
-104 -49 0
-104 -12 0
104 -28 -25 -90 30 98 22 6 -76 49 12 0
-105 65 0
-105 98 0
-105 61 0
-105 32 0
-105 -94 0
-105 13 0
-105 36 0
-105 -7 0
-105 12 0
-105 76 0
105 -65 -98 -61 -32 94 -13 -36 7 -12 -76 0
-106 8 0
-106 18 0
-106 3 0
-106 24 0
-106 -19 0
-106 1 0
-106 -45 0
-106 -39 0
-106 52 0
-106 -48 0
106 -8 -18 -3 -24 19 -1 45 39 -52 48 0
-107 59 0
-107 -23 0
-107 85 0
-107 98 0
-107 19 0
-107 9 0
-107 1 0
-107 66 0
-107 -45 0
-107 8 0
107 -59 23 -85 -98 -19 -9 -1 -66 45 -8 0
-108 17 0
-108 -75 0
-108 -72 0
-108 37 0
-108 -97 0
-108 -23 0
-108 -87 0
-108 22 0
-108 65 0
-108 -69 0
108 -17 75 72 -37 97 23 87 -22 -65 69 0
-109 -14 0
-109 41 0
-109 93 0
-109 13 0
-109 -49 0
-109 -35 0
-109 -23 0
-109 -99 0
-109 81 0
-109 88 0
109 14 -41 -93 -13 49 35 23 99 -81 -88 0
-110 -2 0
-110 25 0
-110 7 0
-110 63 0
-110 90 0
-110 88 0
-110 82 0
-110 91 0
-110 60 0
-110 -28 0
110 2 -25 -7 -63 -90 -88 -82 -91 -60 28 0
101 102 103 104 105 106 107 108 109 110 0
-111 45 0
-111 -48 0
-111 52 0
-111 -88 0
-111 25 0
-111 100 0
-111 26 0
-111 93 0
-111 -14 0
-111 -47 0
111 -45 48 -52 88 -25 -100 -26 -93 14 47 0
-112 -27 0
-112 -66 0
-112 32 0
-112 1 0
-112 -11 0
-112 54 0
-112 -70 0
-112 -29 0
-112 -47 0
-112 -35 0
112 27 66 -32 -1 11 -54 70 29 47 35 0
-113 -94 0
-113 23 0
-113 -83 0
-113 -54 0
-113 -46 0
-113 -76 0
-113 -84 0
-113 -31 0
-113 -3 0
-113 51 0
113 94 -23 83 54 46 76 84 31 3 -51 0
-114 -97 0
-114 31 0
-114 -10 0
-114 80 0
-114 -44 0
-114 23 0
-114 88 0
-114 -70 0
-114 -96 0
-114 -52 0
114 97 -31 10 -80 44 -23 -88 70 96 52 0
-115 39 0
-115 -89 0
-115 -90 0
-115 -91 0
-115 -1 0
-115 6 0
-115 -17 0
-115 43 0
-115 5 0
-115 36 0
115 -39 89 90 91 1 -6 17 -43 -5 -36 0
-116 7 0
-116 48 0
-116 -75 0
-116 34 0
-116 35 0
-116 -99 0
-116 66 0
-116 94 0
-116 -67 0
-116 61 0
116 -7 -48 75 -34 -35 99 -66 -94 67 -61 0
-117 21 0
-117 -42 0
-117 53 0
-117 -11 0
-117 52 0
-117 38 0
-117 100 0
-117 -96 0
-117 50 0
-117 78 0
117 -21 42 -53 11 -52 -38 -100 96 -50 -78 0
-118 22 0
-118 56 0
-118 78 0
-118 -70 0
-118 -48 0
-118 52 0
-118 -4 0
-118 34 0
-118 -55 0
-118 97 0
118 -22 -56 -78 70 48 -52 4 -34 55 -97 0
-119 -50 0
-119 -74 0
-119 -66 0
-119 32 0
-119 -53 0
-119 -100 0
-119 -19 0
-119 -54 0
-119 72 0
-119 10 0
119 50 74 66 -32 53 100 19 54 -72 -10 0
-120 -65 0
-120 70 0
-120 53 0
-120 -95 0
-120 45 0
-120 15 0
-120 76 0
-120 71 0
-120 -11 0
-120 41 0
120 65 -70 -53 95 -45 -15 -76 -71 11 -41 0
111 112 113 114 115 116 117 118 119 120 0
-121 21 0
-121 84 0
-121 42 0
-121 -67 0
-121 -48 0
-121 -63 0
-121 -92 0
-121 -15 0
-121 -62 0
-121 -99 0
121 -21 -84 -42 67 48 63 92 15 62 99 0
-122 4 0
-122 -98 0
-122 66 0
-122 29 0
-122 -77 0
-122 36 0
-122 -78 0
-122 -31 0
-122 -40 0
-122 39 0
122 -4 98 -66 -29 77 -36 78 31 40 -39 0
-123 42 0
-123 19 0
-123 88 0
-123 33 0
-123 66 0
-123 10 0
-123 61 0
-123 -55 0
-123 -9 0
-123 -71 0
123 -42 -19 -88 -33 -66 -10 -61 55 9 71 0
-124 -22 0
-124 46 0
-124 29 0
-124 7 0
-124 -76 0
-124 42 0
-124 -20 0
-124 -64 0
-124 51 0
-124 4 0
124 22 -46 -29 -7 76 -42 20 64 -51 -4 0
-125 -14 0
-125 40 0
-125 48 0
-125 -93 0
-125 -25 0
-125 -56 0
-125 87 0
-125 15 0
-125 99 0
-125 44 0
125 14 -40 -48 93 25 56 -87 -15 -99 -44 0
-126 8 0
-126 56 0
-126 29 0
-126 39 0
-126 -40 0
-126 68 0
-126 -87 0
-126 -28 0
-126 90 0
-126 53 0
126 -8 -56 -29 -39 40 -68 87 28 -90 -53 0
-127 -7 0
-127 -97 0
-127 12 0
-127 -94 0
-127 72 0
-127 -1 0
-127 -45 0
-127 86 0
-127 -41 0
-127 35 0
127 7 97 -12 94 -72 1 45 -86 41 -35 0
-128 86 0
-128 -35 0
-128 -64 0
-128 -99 0
-128 -63 0
-128 1 0
-128 31 0
-128 -30 0
-128 -57 0
-128 66 0
128 -86 35 64 99 63 -1 -31 30 57 -66 0
-129 19 0
-129 -35 0
-129 -79 0
-129 34 0
-129 44 0
-129 -73 0
-129 -55 0
-129 -74 0
-129 42 0
-129 85 0
129 -19 35 79 -34 -44 73 55 74 -42 -85 0
-130 43 0
-130 63 0
-130 -80 0
-130 -19 0
-130 -34 0
-130 -42 0
-130 20 0
-130 33 0
-130 -10 0
-130 82 0
130 -43 -63 80 19 34 42 -20 -33 10 -82 0
121 122 123 124 125 126 127 128 129 130 0
-131 -55 0
-131 93 0
-131 -30 0
-131 68 0
-131 -66 0
-131 15 0
-131 -64 0
-131 73 0
-131 9 0
-131 72 0
131 55 -93 30 -68 66 -15 64 -73 -9 -72 0
-132 -84 0
-132 2 0
-132 -19 0
-132 87 0
-132 -12 0
-132 -16 0
-132 -8 0
-132 34 0
-132 31 0
-132 -96 0
132 84 -2 19 -87 12 16 8 -34 -31 96 0
-133 -21 0
-133 -49 0
-133 -53 0
-133 -38 0
-133 -97 0
-133 -72 0
-133 -87 0
-133 11 0
-133 43 0
-133 8 0
133 21 49 53 38 97 72 87 -11 -43 -8 0
-134 -78 0
-134 45 0
-134 83 0
-134 14 0
-134 48 0
-134 99 0
-134 72 0
-134 53 0
-134 32 0
-134 75 0
134 78 -45 -83 -14 -48 -99 -72 -53 -32 -75 0
-135 93 0
-135 47 0
-135 33 0
-135 -69 0
-135 -29 0
-135 -100 0
-135 83 0
-135 55 0
-135 56 0
-135 -4 0
135 -93 -47 -33 69 29 100 -83 -55 -56 4 0
-136 -67 0
-136 49 0
-136 42 0
-136 31 0
-136 65 0
-136 -28 0
-136 -21 0
-136 -100 0
-136 1 0
-136 -57 0
136 67 -49 -42 -31 -65 28 21 100 -1 57 0
-137 -29 0
-137 64 0
-137 65 0
-137 56 0
-137 -96 0
-137 2 0
-137 35 0
-137 -42 0
-137 -84 0
-137 -70 0
137 29 -64 -65 -56 96 -2 -35 42 84 70 0
-138 44 0
-138 41 0
-138 89 0
-138 40 0
-138 49 0
-138 85 0
-138 -29 0
-138 16 0
-138 -30 0
-138 -51 0
138 -44 -41 -89 -40 -49 -85 29 -16 30 51 0
-139 34 0
-139 -57 0
-139 -51 0
-139 -95 0
-139 37 0
-139 -63 0
-139 -25 0
-139 -75 0
-139 -74 0
-139 -67 0
139 -34 57 51 95 -37 63 25 75 74 67 0
-140 7 0
-140 -19 0
-140 76 0
-140 43 0
-140 -35 0
-140 60 0
-140 87 0
-140 56 0
-140 5 0
-140 91 0
140 -7 19 -76 -43 35 -60 -87 -56 -5 -91 0
131 132 133 134 135 136 137 138 139 140 0
-141 53 0
-141 99 0
-141 -6 0
-141 -21 0
-141 -32 0
-141 -12 0
-141 52 0
-141 -51 0
-141 49 0
-141 9 0
141 -53 -99 6 21 32 12 -52 51 -49 -9 0
-142 75 0
-142 -27 0
-142 41 0
-142 -48 0
-142 59 0
-142 60 0
-142 16 0
-142 50 0
-142 -39 0
-142 45 0
142 -75 27 -41 48 -59 -60 -16 -50 39 -45 0
-143 -49 0
-143 14 0
-143 -29 0
-143 -4 0
-143 -28 0
-143 -45 0
-143 8 0
-143 -9 0
-143 -12 0
-143 -74 0
143 49 -14 29 4 28 45 -8 9 12 74 0
-144 -37 0
-144 63 0
-144 36 0
-144 81 0
-144 -65 0
-144 91 0
-144 -40 0
-144 -29 0
-144 -46 0
-144 -73 0
144 37 -63 -36 -81 65 -91 40 29 46 73 0
-145 55 0
-145 -99 0
-145 79 0
-145 -52 0
-145 47 0
-145 -46 0
-145 -7 0
-145 23 0
-145 54 0
-145 -15 0
145 -55 99 -79 52 -47 46 7 -23 -54 15 0
-146 74 0
-146 -79 0
-146 -25 0
-146 -12 0
-146 45 0
-146 13 0
-146 81 0
-146 75 0
-146 -28 0
-146 51 0
146 -74 79 25 12 -45 -13 -81 -75 28 -51 0
-147 -79 0
-147 -53 0
-147 -27 0
-147 -28 0
-147 -49 0
-147 -97 0
-147 59 0
-147 -57 0
-147 -60 0
-147 80 0
147 79 53 27 28 49 97 -59 57 60 -80 0
-148 32 0
-148 12 0
-148 34 0
-148 -36 0
-148 79 0
-148 -6 0
-148 -71 0
-148 35 0
-148 -22 0
-148 42 0
148 -32 -12 -34 36 -79 6 71 -35 22 -42 0
-149 70 0
-149 -10 0
-149 49 0
-149 58 0
-149 -71 0
-149 -84 0
-149 -44 0
-149 27 0
-149 55 0
-149 75 0
149 -70 10 -49 -58 71 84 44 -27 -55 -75 0
-150 3 0
-150 13 0
-150 -20 0
-150 31 0
-150 -25 0
-150 -73 0
-150 -16 0
-150 -83 0
-150 -34 0
-150 49 0
150 -3 -13 20 -31 25 73 16 83 34 -49 0
141 142 143 144 145 146 147 148 149 150 0
-151 -10 0
-151 -89 0
-151 13 0
-151 -41 0
-151 -94 0
-151 77 0
-151 63 0
-151 87 0
-151 26 0
-151 68 0
151 10 89 -13 41 94 -77 -63 -87 -26 -68 0
-152 79 0
-152 -9 0
-152 55 0
-152 -98 0
-152 -81 0
-152 76 0
-152 -23 0
-152 83 0
-152 71 0
-152 -85 0
152 -79 9 -55 98 81 -76 23 -83 -71 85 0
-153 75 0
-153 -99 0
-153 51 0
-153 -41 0
-153 81 0
-153 -72 0
-153 39 0
-153 49 0
-153 -85 0
-153 -13 0
153 -75 99 -51 41 -81 72 -39 -49 85 13 0
-154 81 0
-154 33 0
-154 -53 0
-154 -43 0
-154 -96 0
-154 -98 0
-154 -94 0
-154 -24 0
-154 70 0
-154 -10 0
154 -81 -33 53 43 96 98 94 24 -70 10 0
-155 -58 0
-155 -93 0
-155 -15 0
-155 36 0
-155 54 0
-155 -9 0
-155 10 0
-155 43 0
-155 19 0
-155 -38 0
155 58 93 15 -36 -54 9 -10 -43 -19 38 0
-156 -72 0
-156 -1 0
-156 94 0
-156 -64 0
-156 10 0
-156 21 0
-156 78 0
-156 99 0
-156 28 0
-156 95 0
156 72 1 -94 64 -10 -21 -78 -99 -28 -95 0
-157 6 0
-157 15 0
-157 57 0
-157 -72 0
-157 -49 0
-157 -96 0
-157 43 0
-157 -36 0
-157 20 0
-157 29 0
157 -6 -15 -57 72 49 96 -43 36 -20 -29 0
-158 26 0
-158 -22 0
-158 64 0
-158 -66 0
-158 57 0
-158 88 0
-158 62 0
-158 99 0
-158 39 0
-158 61 0
158 -26 22 -64 66 -57 -88 -62 -99 -39 -61 0
-159 -28 0
-159 -100 0
-159 -81 0
-159 17 0
-159 39 0
-159 97 0
-159 74 0
-159 41 0
-159 72 0
-159 -93 0
159 28 100 81 -17 -39 -97 -74 -41 -72 93 0
-160 -4 0
-160 93 0
-160 -97 0
-160 -92 0
-160 -54 0
-160 79 0
-160 -63 0
-160 -87 0
-160 -78 0
-160 -19 0
160 4 -93 97 92 54 -79 63 87 78 19 0
151 152 153 154 155 156 157 158 159 160 0
-161 -10 0
-161 -25 0
-161 75 0
-161 -77 0
-161 23 0
-161 -15 0
-161 19 0
-161 56 0
-161 -58 0
-161 86 0
161 10 25 -75 77 -23 15 -19 -56 58 -86 0
-162 33 0
-162 -27 0
-162 26 0
-162 -51 0
-162 13 0
-162 43 0
-162 -45 0
-162 73 0
-162 87 0
-162 92 0
162 -33 27 -26 51 -13 -43 45 -73 -87 -92 0
-163 -48 0
-163 42 0
-163 74 0
-163 -93 0
-163 -66 0
-163 59 0
-163 -73 0
-163 -76 0
-163 -81 0
-163 26 0
163 48 -42 -74 93 66 -59 73 76 81 -26 0
-164 69 0
-164 -77 0
-164 -42 0
-164 -29 0
-164 -38 0
-164 -57 0
-164 83 0
-164 14 0
-164 58 0
-164 45 0
164 -69 77 42 29 38 57 -83 -14 -58 -45 0
-165 84 0
-165 -54 0
-165 -34 0
-165 6 0
-165 -36 0
-165 52 0
-165 81 0
-165 -44 0
-165 -20 0
-165 12 0
165 -84 54 34 -6 36 -52 -81 44 20 -12 0
-166 18 0
-166 -81 0
-166 100 0
-166 86 0
-166 -10 0
-166 -40 0
-166 74 0
-166 15 0
-166 44 0
-166 -96 0
166 -18 81 -100 -86 10 40 -74 -15 -44 96 0
-167 -84 0
-167 -100 0
-167 96 0
-167 -24 0
-167 67 0
-167 -59 0
-167 93 0
-167 -94 0
-167 -52 0
-167 -51 0
167 84 100 -96 24 -67 59 -93 94 52 51 0
-168 -68 0
-168 -34 0
-168 -4 0
-168 -9 0
-168 57 0
-168 -10 0
-168 65 0
-168 -7 0
-168 33 0
-168 -94 0
168 68 34 4 9 -57 10 -65 7 -33 94 0
-169 92 0
-169 -54 0
-169 -100 0
-169 -46 0
-169 -14 0
-169 -57 0
-169 -58 0
-169 -36 0
-169 53 0
-169 -17 0
169 -92 54 100 46 14 57 58 36 -53 17 0
-170 -12 0
-170 57 0
-170 -62 0
-170 96 0
-170 97 0
-170 56 0
-170 42 0
-170 -44 0
-170 7 0
-170 -32 0
170 12 -57 62 -96 -97 -56 -42 44 -7 32 0
161 162 163 164 165 166 167 168 169 170 0
-171 -64 0
-171 44 0
-171 49 0
-171 -63 0
-171 36 0
-171 23 0
-171 86 0
-171 70 0
-171 -32 0
-171 -61 0
171 64 -44 -49 63 -36 -23 -86 -70 32 61 0
-172 12 0
-172 9 0
-172 63 0
-172 44 0
-172 -55 0
-172 98 0
-172 -92 0
-172 -86 0
-172 -28 0
-172 33 0
172 -12 -9 -63 -44 55 -98 92 86 28 -33 0
-173 63 0
-173 35 0
-173 -57 0
-173 -85 0
-173 -87 0
-173 60 0
-173 -82 0
-173 -97 0
-173 -8 0
-173 -68 0
173 -63 -35 57 85 87 -60 82 97 8 68 0
-174 -95 0
-174 66 0
-174 -72 0
-174 -18 0
-174 61 0
-174 -88 0
-174 20 0
-174 -92 0
-174 64 0
-174 90 0
174 95 -66 72 18 -61 88 -20 92 -64 -90 0
-175 37 0
-175 -19 0
-175 64 0
-175 -20 0
-175 -69 0
-175 -42 0
-175 6 0
-175 -98 0
-175 -9 0
-175 5 0
175 -37 19 -64 20 69 42 -6 98 9 -5 0
-176 -69 0
-176 1 0
-176 -57 0
-176 84 0
-176 -63 0
-176 -74 0
-176 -29 0
-176 31 0
-176 -67 0
-176 18 0
176 69 -1 57 -84 63 74 29 -31 67 -18 0
-177 49 0
-177 13 0
-177 -66 0
-177 10 0
-177 62 0
-177 -87 0
-177 88 0
-177 58 0
-177 85 0
-177 -15 0
177 -49 -13 66 -10 -62 87 -88 -58 -85 15 0
-178 -22 0
-178 -20 0
-178 80 0
-178 -16 0
-178 -75 0
-178 -67 0
-178 12 0
-178 -46 0
-178 -36 0
-178 54 0
178 22 20 -80 16 75 67 -12 46 36 -54 0
-179 -75 0
-179 -72 0
-179 -18 0
-179 69 0
-179 25 0
-179 15 0
-179 96 0
-179 60 0
-179 13 0
-179 49 0
179 75 72 18 -69 -25 -15 -96 -60 -13 -49 0
-180 -3 0
-180 -36 0
-180 83 0
-180 65 0
-180 40 0
-180 95 0
-180 -17 0
-180 -15 0
-180 -38 0
-180 4 0
180 3 36 -83 -65 -40 -95 17 15 38 -4 0
171 172 173 174 175 176 177 178 179 180 0
-181 -11 0
-181 -73 0
-181 -16 0
-181 51 0
-181 -47 0
-181 89 0
-181 -66 0
-181 -41 0
-181 27 0
-181 5 0
181 11 73 16 -51 47 -89 66 41 -27 -5 0
-182 26 0
-182 -28 0
-182 -10 0
-182 -35 0
-182 -71 0
-182 82 0
-182 -43 0
-182 53 0
-182 34 0
-182 -5 0
182 -26 28 10 35 71 -82 43 -53 -34 5 0
-183 -21 0
-183 40 0
-183 60 0
-183 82 0
-183 28 0
-183 27 0
-183 25 0
-183 -38 0
-183 -3 0
-183 63 0
183 21 -40 -60 -82 -28 -27 -25 38 3 -63 0
-184 -88 0
-184 77 0
-184 -42 0
-184 -73 0
-184 7 0
-184 28 0
-184 43 0
-184 -18 0
-184 -97 0
-184 -4 0
184 88 -77 42 73 -7 -28 -43 18 97 4 0
-185 -67 0
-185 20 0
-185 100 0
-185 86 0
-185 -27 0
-185 71 0
-185 34 0
-185 -83 0
-185 89 0
-185 80 0
185 67 -20 -100 -86 27 -71 -34 83 -89 -80 0
-186 57 0
-186 -3 0
-186 78 0
-186 -98 0
-186 37 0
-186 -47 0
-186 34 0
-186 -17 0
-186 -26 0
-186 45 0
186 -57 3 -78 98 -37 47 -34 17 26 -45 0
-187 -45 0
-187 100 0
-187 5 0
-187 -84 0
-187 99 0
-187 -24 0
-187 -89 0
-187 78 0
-187 48 0
-187 92 0
187 45 -100 -5 84 -99 24 89 -78 -48 -92 0
-188 -4 0
-188 -44 0
-188 35 0
-188 69 0
-188 57 0
-188 2 0
-188 -74 0
-188 -78 0
-188 -25 0
-188 20 0
188 4 44 -35 -69 -57 -2 74 78 25 -20 0
-189 88 0
-189 26 0
-189 -92 0
-189 -46 0
-189 -100 0
-189 -2 0
-189 -30 0
-189 85 0
-189 -74 0
-189 -61 0
189 -88 -26 92 46 100 2 30 -85 74 61 0
-190 -96 0
-190 64 0
-190 77 0
-190 12 0
-190 49 0
-190 52 0
-190 73 0
-190 50 0
-190 -80 0
-190 9 0
190 96 -64 -77 -12 -49 -52 -73 -50 80 -9 0
181 182 183 184 185 186 187 188 189 190 0
-191 13 0
-191 3 0
-191 -93 0
-191 5 0
-191 -15 0
-191 -79 0
-191 -27 0
-191 29 0
-191 -95 0
-191 -59 0
191 -13 -3 93 -5 15 79 27 -29 95 59 0
-192 -77 0
-192 -21 0
-192 -25 0
-192 -55 0
-192 -52 0
-192 82 0
-192 79 0
-192 43 0
-192 -67 0
-192 -37 0
192 77 21 25 55 52 -82 -79 -43 67 37 0
-193 -70 0
-193 81 0
-193 64 0
-193 51 0
-193 57 0
-193 -55 0
-193 26 0
-193 -15 0
-193 90 0
-193 60 0
193 70 -81 -64 -51 -57 55 -26 15 -90 -60 0
-194 90 0
-194 -8 0
-194 -17 0
-194 -96 0
-194 -36 0
-194 54 0
-194 82 0
-194 -94 0
-194 -40 0
-194 -81 0
194 -90 8 17 96 36 -54 -82 94 40 81 0
-195 52 0
-195 79 0
-195 -63 0
-195 -84 0
-195 29 0
-195 -62 0
-195 -93 0
-195 -61 0
-195 50 0
-195 -35 0
195 -52 -79 63 84 -29 62 93 61 -50 35 0
-196 -22 0
-196 -75 0
-196 78 0
-196 57 0
-196 -51 0
-196 -49 0
-196 100 0
-196 6 0
-196 -32 0
-196 54 0
196 22 75 -78 -57 51 49 -100 -6 32 -54 0
-197 75 0
-197 -80 0
-197 89 0
-197 -29 0
-197 -99 0
-197 -3 0
-197 27 0
-197 84 0
-197 -30 0
-197 19 0
197 -75 80 -89 29 99 3 -27 -84 30 -19 0
-198 5 0
-198 58 0
-198 -54 0
-198 -29 0
-198 25 0
-198 -19 0
-198 -55 0
-198 67 0
-198 2 0
-198 36 0
198 -5 -58 54 29 -25 19 55 -67 -2 -36 0
-199 7 0
-199 -46 0
-199 -77 0
-199 -85 0
-199 -23 0
-199 -48 0
-199 -18 0
-199 -73 0
-199 -61 0
-199 76 0
199 -7 46 77 85 23 48 18 73 61 -76 0
-200 22 0
-200 -69 0
-200 -66 0
-200 -34 0
-200 -100 0
-200 -58 0
-200 78 0
-200 -49 0
-200 1 0
-200 86 0
200 -22 69 66 34 100 58 -78 49 -1 -86 0
191 192 193 194 195 196 197 198 199 200 0
